n_machines = 3;
n_resources = 4;
n_jobs = 20;
horizon = 9700;
LB = 3233;
n_jobs_per_resource = [5, 5, 5, 5];
duration = [970, 185, 608, 778, 451, 248, 651, 714, 88, 938, 466, 81, 351, 835, 375, 353, 67, 330, 505, 706]